c User generated cnf file
p cnf 13 20
13 -7 7 0 
1 1 -13 0 
-6 9 8 0 
2 -9 6 0 
7 9 -1 0 
6 3 -8 0 
8 -8 6 0 
-2 4 2 0 
-9 9 5 0 
7 -6 4 0 
7 6 -6 0 
-12 2 9 0 
2 -7 9 0 
5 -9 4 0 
12 7 -8 0 
3 6 -7 0 
-3 9 5 0 
-4 10 4 0 
3 -10 7 0 
13 -9 10 0 
